sat
(:max-memory         18.16
 :memory             18.06
 :nlsat-propagations 8
 :nlsat-stages       4
 :num-allocs         33446
 :rlimit-count       4786
 :time               0.00
 :total-time         0.02)
